p tdp 20 41
1 3
1 4
1 7
1 18
1 19
2 6
2 10
2 17
2 18
3 4
3 6
3 16
3 20
4 6
4 8
4 10
4 17
4 18
5 6
5 10
5 11
5 12
5 15
5 20
6 13
7 8
7 11
7 18
8 20
9 11
9 12
9 16
10 16
10 17
11 18
11 20
12 13
12 17
12 18
14 18
19 20
